
List of user-set options:

                                    Name   Value                used
                           compl_inf_tol = 1                     yes
                         constr_viol_tol = 1                     yes
                            dual_inf_tol = 1000                  yes
                           linear_solver = ma97                  yes
                              ma86_small = 1e-30                  no
                                  ma86_u = 0.0001                 no
                              ma97_order = best                  yes
                              ma97_small = 1e-30                 yes
                            ma97_switch1 = at_start              yes
                            ma97_switch2 = od_hd_reuse           yes
                                  ma97_u = 1e-06                 yes
                               ma97_umax = 0.5                   yes
                                max_iter = 1000                  yes
                    max_refinement_steps = 20                    yes
                    min_refinement_steps = 5                     yes
                                 mu_init = 1e-06                 yes
           mu_superlinear_decrease_power = 1.25                  yes
                   nlp_scaling_min_value = 1e-08                 yes
                        option_file_name = Preset_Case_114_pf.opt  yes
                             output_file = ./tmp/Preset_Case_114_pf.output  yes
                      print_user_options = yes                   yes
        required_infeasibility_reduction = 1                      no
                                     tol = 1e-08                 yes
                   warm_start_bound_frac = 1e-20                 yes
                   warm_start_bound_push = 1e-20                 yes
                   warm_start_init_point = yes                   yes
              warm_start_mult_bound_push = 1e-20                 yes
                warm_start_mult_init_max = 1e+40                 yes
             warm_start_slack_bound_frac = 1e-20                 yes
             warm_start_slack_bound_push = 1e-20                 yes

******************************************************************************
This program contains Ipopt, a library for large-scale nonlinear optimization.
 Ipopt is released as open source code under the Eclipse Public License (EPL).
         For more information visit http://projects.coin-or.org/Ipopt
******************************************************************************

This is Ipopt version 3.12.10, running with linear solver ma97.

Number of nonzeros in equality constraint Jacobian...:   123443
Number of nonzeros in inequality constraint Jacobian.:      213
Number of nonzeros in Lagrangian Hessian.............:    49069

Total number of variables............................:    31591
                     variables with only lower bounds:    12912
                variables with lower and upper bounds:    15130
                     variables with only upper bounds:        0
Total number of equality constraints.................:    31483
Total number of inequality constraints...............:       25
        inequality constraints with only lower bounds:        4
   inequality constraints with lower and upper bounds:        0
        inequality constraints with only upper bounds:       21

iter    objective    inf_pr   inf_du lg(mu)  ||d||  lg(rg) alpha_du alpha_pr  ls
   0 -4.9859301e+00 4.01e-03 1.02e+00  -6.0 0.00e+00    -  0.00e+00 0.00e+00   0
   1 -4.9853698e+00 4.01e-03 1.02e+00  -6.0 3.29e+05    -  2.58e-04 1.97e-05h  6
   2 -4.9868421e+00 3.06e-03 5.99e+01  -6.0 4.44e+03    -  2.63e-01 2.13e-03h  1
   3 -5.0444645e+00 1.94e+00 1.24e+02  -6.0 4.38e+03    -  1.96e-01 8.41e-02f  1
   4 -5.0769524e+00 2.49e+00 1.55e+02  -6.0 4.17e+03    -  1.25e-01 5.71e-02h  1
   5 -5.2647527e+00 4.73e+00 1.28e+03  -6.0 3.35e+03    -  2.38e-01 3.53e-01h  1
   6 -5.2947049e+00 4.52e+00 1.17e+03  -6.0 2.48e+03    -  3.02e-01 1.51e-01h  1
   7 -5.4231841e+00 2.87e+01 1.56e+03  -6.0 1.80e+03    -  7.07e-01 7.01e-01h  1
   8 -5.4206809e+00 2.67e+01 1.45e+03  -6.0 1.28e+02  -4.0 4.53e-03 6.94e-02h  1
   9 -5.4033403e+00 1.67e+01 9.07e+02  -6.0 8.33e+00  -4.5 9.55e-02 3.76e-01h  1
iter    objective    inf_pr   inf_du lg(mu)  ||d||  lg(rg) alpha_du alpha_pr  ls
  10 -5.3772104e+00 1.39e-02 3.72e+01  -6.0 9.35e+00  -5.0 2.79e-01 1.00e+00h  1
  11 -5.3988251e+00 6.53e-01 1.67e+02  -6.0 2.13e+01  -5.4 6.72e-01 8.34e-01h  1
  12 -5.3953890e+00 7.88e-02 1.43e+01  -6.0 2.21e+01  -5.9 8.74e-01 1.00e+00h  1
  13 -5.3979199e+00 7.33e-02 1.34e+00  -6.0 4.78e+01  -6.4 1.00e+00 1.00e+00h  1
  14 -5.4023391e+00 2.24e-01 8.12e-01  -6.0 8.37e+01  -6.9 1.00e+00 1.00e+00h  1
  15 -5.4048928e+00 2.75e-01 1.30e+00  -6.0 9.31e+01  -7.3 1.00e+00 1.00e+00h  1
  16 -5.4053725e+00 6.39e-01 4.19e-01  -6.0 1.36e+02  -7.8 1.00e+00 1.00e+00h  1
  17 -5.4057127e+00 6.02e-01 1.69e+00  -6.0 2.37e+02  -8.3 1.00e+00 8.10e-01h  1
  18 -5.4057788e+00 8.33e-01 3.08e+01  -6.0 4.17e+03    -  3.72e-01 4.98e-02h  1
  19 -5.4061445e+00 7.58e+00 4.95e+00  -6.0 9.24e+02    -  1.00e+00 7.35e-01h  1
iter    objective    inf_pr   inf_du lg(mu)  ||d||  lg(rg) alpha_du alpha_pr  ls
  20 -5.4060398e+00 1.13e+01 1.94e+01  -6.0 1.30e+03    -  1.60e-02 5.69e-01h  1
  21 -5.4060500e+00 1.19e+01 2.25e+01  -6.0 1.14e+04    -  3.06e-02 1.81e-02h  4
  22 -5.4059373e+00 1.20e+01 3.14e+01  -6.0 1.18e+03    -  9.07e-02 5.00e-01h  2
  23 -5.4057412e+00 3.11e+00 3.25e+01  -6.0 4.36e+02    -  2.36e-01 1.00e+00h  1
  24 -5.4058377e+00 4.51e+00 1.45e+00  -6.0 5.14e+02    -  1.00e+00 1.00e+00h  1
  25 -5.4058450e+00 9.69e-01 6.37e-01  -6.0 2.32e+02    -  1.00e+00 1.00e+00h  1
  26 -5.4058384e+00 9.00e-04 8.53e-04  -6.0 6.19e+00    -  1.00e+00 1.00e+00h  1
  27 -5.4058384e+00 2.41e-08 1.19e-07  -6.0 3.80e-02    -  1.00e+00 1.00e+00h  1
  28 -5.4060927e+00 5.71e+00 2.27e+01  -7.5 1.02e+03    -  6.73e-01 5.94e-01f  1
  29 -5.4061530e+00 4.88e+00 6.29e+00  -7.5 5.85e+02    -  7.72e-01 8.41e-01h  1
iter    objective    inf_pr   inf_du lg(mu)  ||d||  lg(rg) alpha_du alpha_pr  ls
  30 -5.4061231e+00 7.44e-01 2.94e-01  -7.5 1.68e+02    -  1.00e+00 1.00e+00h  1
  31 -5.4061205e+00 2.81e-03 6.27e-04  -7.5 1.17e+01    -  1.00e+00 1.00e+00h  1
  32 -5.4061205e+00 3.76e-06 1.12e-06  -7.5 4.51e-01    -  1.00e+00 1.00e+00h  1
  33 -5.4061205e+00 2.91e-10 8.96e-12  -7.5 1.29e-03    -  1.00e+00 1.00e+00h  1
  34 -5.4061224e+00 3.10e-02 8.82e-01  -9.0 4.87e+01    -  9.31e-01 8.35e-01h  1
  35 -5.4061225e+00 2.07e-03 1.23e-03  -9.0 1.05e+01    -  1.00e+00 1.00e+00h  1
  36 -5.4061225e+00 8.11e-06 2.23e-06  -9.0 6.56e-01    -  1.00e+00 1.00e+00h  1
  37 -5.4061225e+00 4.04e-08 1.11e-08  -9.0 4.64e-02    -  1.00e+00 1.00e+00h  1
  38 -5.4061225e+00 4.27e-10 8.23e-12  -9.0 2.54e-04    -  1.00e+00 1.00e+00h  1

Number of Iterations....: 38

                                   (scaled)                 (unscaled)
Objective...............:  -4.2235332286067111e+00   -5.4061225326165898e+00
Dual infeasibility......:   8.2258646248204114e-12    1.0529106719770127e-11
Constraint violation....:   4.2666319338257458e-10    4.2666319338257458e-10
Complementarity.........:   9.0912477770042699e-10    1.1636797154565465e-09
Overall NLP error.......:   9.0912477770042699e-10    1.1636797154565465e-09


Number of objective function evaluations             = 55
Number of objective gradient evaluations             = 39
Number of equality constraint evaluations            = 55
Number of inequality constraint evaluations          = 55
Number of equality constraint Jacobian evaluations   = 39
Number of inequality constraint Jacobian evaluations = 39
Number of Lagrangian Hessian evaluations             = 38
Total CPU secs in IPOPT (w/o function evaluations)   =     83.918
Total CPU secs in NLP function evaluations           =      1.549

EXIT: Optimal Solution Found.
